NAME : senseval3_subTrees1.gtsp.pid14156.gtsp.26843550.tour
COMMENT : Length = 26843550
COMMENT : Found by LKH [Keld Helsgaun] Wed Feb 28 21:01:17 2018
TYPE : TOUR
DIMENSION : 37
TOUR_SECTION
1
2
3
4
5
6
7
10
11
12
13
14
15
16
17
18
24
25
26
27
28
29
30
31
32
33
34
35
36
37
19
20
21
22
23
9
8
-1
EOF
